Problem:    
Rows:       260
Columns:    89 (72 integer, 72 binary)
Non-zeros:  812
Status:     INTEGER OPTIMAL
Objective:  value = 7.498911 (MINimum)

   No.   Row name        Activity     Lower bound   Upper bound
------ ------------    ------------- ------------- -------------
     1 r.5                    1007.5             0               
     2 r.6                  -996.664      -997.742               
     3 r.7                   7.49891             0               
     4 r.8                   4.24561      -990.499               
     5 r.9                    1007.5             0               
     6 r.10                 -994.507      -997.844               
     7 r.11                  7.49891             0               
     8 r.12                  5.49251      -990.602               
     9 r.13                  7.49891             0               
    10 r.14                 -999.316      -999.577               
    11 r.15                   1007.5             0               
    12 r.16                 -995.754      -998.449               
    13 r.17                  7.49891             0               
    14 r.18                 -999.066      -999.327               
    15 r.19                   1007.5             0               
    16 r.20                 -997.305      -997.601               
    17 r.21                   1007.5             0               
    18 r.22                 -998.922      -999.183               
    19 r.23                  7.49891             0               
    20 r.24                  4.24561       -995.31               
    21 r.25                   1007.5             0               
    22 r.26                 -999.739      -999.739               
    23 r.27                  7.49891             0               
    24 r.28                   0.2608      -998.496               
    25 r.29                   1007.5             0               
    26 r.30                 -992.501      -997.994               
    27 r.31                  7.49891             0               
    28 r.32                  7.49891      -996.265               
    29 r.33                  7.49891             0               
    30 r.34                  7.49891      -998.073               
    31 r.35                   1007.5             0               
    32 r.36                 -992.501      -996.747               
    33 r.37                        1             1             = 
    34 r.38                        1             1             = 
    35 r.39                        1             1             = 
    36 r.40                        1             1             = 
    37 r.41                        1             1             = 
    38 r.42                        1             1             = 
    39 r.43                        1             1             = 
    40 r.44                        1             1             = 
    41 r.45                        2             2               
    42 r.46                       -2         -1001               
    43 r.47                 -997.844      -997.844               
    44 r.48                     1000             2               
    45 r.49                    -1000         -1001               
    46 r.50                  2001.25      -990.602               
    47 r.51                     1001             2               
    48 r.52                    -1001         -1001               
    49 r.53                  997.348      -999.577               
    50 r.54                     1001             2               
    51 r.55                    -1001         -1001               
    52 r.56                     2000      -998.449               
    53 r.57                     1001             2               
    54 r.58                    -1001         -1001               
    55 r.59                  997.597      -999.327               
    56 r.60                     1001             2               
    57 r.61                    -1001         -1001               
    58 r.62                  1998.45      -997.601               
    59 r.63                        2             2               
    60 r.64                       -2         -1001               
    61 r.65                 -2.25811      -999.183               
    62 r.66                     1000             2               
    63 r.67                    -1000         -1001               
    64 r.68                     2000       -995.31               
    65 r.69                 -996.924      -997.742               
    66 r.70                  3.98481      -990.499               
    67 r.71                 -996.924      -997.742               
    68 r.72                  3.98481      -990.499               
    69 r.73                 -995.837      -997.994               
    70 r.74                   4.1625      -996.265               
    71 r.75                 -996.747      -997.994               
    72 r.76                   3.2533      -996.265               
    73 r.77                   4.1625      -998.073               
    74 r.78                 -995.837      -996.747               
    75 r.79                   3.2533      -998.073               
    76 r.80                 -996.747      -996.747               
    77 r.81                        2             2               
    78 r.82                       -2         -1001               
    79 r.83                  997.844       2.25811               
    80 r.84                     1000             2               
    81 r.85                    -1000         -1001               
    82 r.86                  1998.75       9.50114               
    83 r.87                     1001             2               
    84 r.88                    -1001         -1001               
    85 r.89                  995.191      -999.577               
    86 r.90                     1001             2               
    87 r.91                    -1001         -1001               
    88 r.92                  1998.75      -998.449               
    89 r.93                     1001             2               
    90 r.94                    -1001         -1001               
    91 r.95                  995.441      -999.327               
    92 r.96                     1001             2               
    93 r.97                    -1001         -1001               
    94 r.98                   1997.2      -997.601               
    95 r.99                        2             2               
    96 r.100                      -2         -1001               
    97 r.101                -4.41421      -999.183               
    98 r.102                    1000             2               
    99 r.103                   -1000         -1001               
   100 r.104                 1998.75       -995.31               
   101 r.105                -994.768      -997.844               
   102 r.106                 5.23171      -990.602               
   103 r.107                -994.768      -997.844               
   104 r.108                 5.23171      -990.602               
   105 r.109                -997.994      -997.994               
   106 r.110                  2.0064      -996.265               
   107 r.111                -997.994      -997.994               
   108 r.112                  2.0064      -996.265               
   109 r.113                    1001             2               
   110 r.114                   -1001         -1001               
   111 r.115                 2002.01      -998.073               
   112 r.116                    1001             2               
   113 r.117                   -1001         -1001               
   114 r.118                 2002.01      -996.747               
   115 r.119                    1001             2               
   116 r.120                   -1001         -1001               
   117 r.121                 3002.65       2.25811               
   118 r.122                    1001             2               
   119 r.123                   -1001         -1001               
   120 r.124                    2000       9.50114               
   121 r.125                    1001             2               
   122 r.126                   -1001         -1001               
   123 r.127                 3004.81        2.1561               
   124 r.128                    1001             2               
   125 r.129                   -1001         -1001               
   126 r.130                 2001.25       9.39812               
   127 r.131                    1000             2               
   128 r.132                   -1000         -1001               
   129 r.133                 2000.25      -999.327               
   130 r.134                       2             2               
   131 r.135                      -2         -1001               
   132 r.136                -1.55059      -997.601               
   133 r.137                    1001             2               
   134 r.138                   -1001         -1001               
   135 r.139                 3000.39      -999.183               
   136 r.140                    1001             2               
   137 r.141                   -1001         -1001               
   138 r.142                    2000       -995.31               
   139 r.143                -999.577      -999.577               
   140 r.144                -996.015      -998.449               
   141 r.145                -999.577      -999.577               
   142 r.146                -996.015      -998.449               
   143 r.147                 6.81491      -997.994               
   144 r.148                 1006.81      -996.265               
   145 r.149                -996.747      -997.994               
   146 r.150                  3.2533      -996.265               
   147 r.151                 1006.81      -998.073               
   148 r.152                 6.81491      -996.747               
   149 r.153                  3.2533      -998.073               
   150 r.154                -996.747      -996.747               
   151 r.155                    1001             2               
   152 r.156                   -1001         -1001               
   153 r.157                  3002.4       2.25811               
   154 r.158                    1001             2               
   155 r.159                   -1001         -1001               
   156 r.160                 2001.55       9.50114               
   157 r.161                    1001             2               
   158 r.162                   -1001         -1001               
   159 r.163                 3004.56        2.1561               
   160 r.164                    1001             2               
   161 r.165                   -1001         -1001               
   162 r.166                  2002.8       9.39812               
   163 r.167                    1000             2               
   164 r.168                   -1000         -1001               
   165 r.169                 1999.75        0.4232               
   166 r.170                       2             2               
   167 r.171                      -2         -1001               
   168 r.172                 1.55059       1.55059               
   169 r.173                    1001             2               
   170 r.174                   -1001         -1001               
   171 r.175                 3000.14      -999.183               
   172 r.176                    1001             2               
   173 r.177                   -1001         -1001               
   174 r.178                 2001.55       -995.31               
   175 r.179                -999.327      -999.327               
   176 r.180                -997.566      -997.601               
   177 r.181                -999.327      -999.327               
   178 r.182                -997.566      -997.601               
   179 r.183                 6.56504      -997.994               
   180 r.184                 1006.57      -996.265               
   181 r.185                -995.196      -997.994               
   182 r.186                 4.80389      -996.265               
   183 r.187                    1000             2               
   184 r.188                   -1000         -1001               
   185 r.189                 3006.57      -998.073               
   186 r.190                       2             2               
   187 r.191                      -2         -1001               
   188 r.192                -995.196      -996.747               
   189 r.193                       2             2               
   190 r.194                      -2         -1001               
   191 r.195                 2.25811       2.25811               
   192 r.196                    1000             2               
   193 r.197                   -1000         -1001               
   194 r.198                    2000       9.50114               
   195 r.199                       2             2               
   196 r.200                      -2         -1001               
   197 r.201                 4.41421        2.1561               
   198 r.202                    1000             2               
   199 r.203                   -1000         -1001               
   200 r.204                 2001.25       9.39812               
   201 r.205                    1001             2               
   202 r.206                   -1001         -1001               
   203 r.207                 999.606        0.4232               
   204 r.208                    1001             2               
   205 r.209                   -1001         -1001               
   206 r.210                    2000       1.55059               
   207 r.211                    1001             2               
   208 r.212                   -1001         -1001               
   209 r.213                 999.856      0.673067               
   210 r.214                    1001             2               
   211 r.215                   -1001         -1001               
   212 r.216                 1998.45       2.39876               
   213 r.217                -999.183      -999.183               
   214 r.218                 3.98481       -995.31               
   215 r.219                -999.183      -999.183               
   216 r.220                 3.98481       -995.31               
   217 r.221                       2             2               
   218 r.222                      -2         -1001               
   219 r.223                -993.579      -997.994               
   220 r.224                    1000             2               
   221 r.225                   -1000         -1001               
   222 r.226                 2003.25      -996.265               
   223 r.227                 6.42061      -998.073               
   224 r.228                -993.579      -996.747               
   225 r.229                  3.2533      -998.073               
   226 r.230                -996.747      -996.747               
   227 r.231                -992.762      -997.994               
   228 r.232                 7.23811      -996.265               
   229 r.233                -992.762      -997.994               
   230 r.234                 7.23811      -996.265               
   231 r.235                       2             2               
   232 r.236                      -2         -1001               
   233 r.237                 993.579        0.8175               
   234 r.238                    1000             2               
   235 r.239                   -1000         -1001               
   236 r.240                 1996.75       4.68982               
   237 r.241                    1001             2               
   238 r.242                   -1001         -1001               
   239 r.243                    2000      -998.073               
   240 r.244                    1001             2               
   241 r.245                   -1001         -1001               
   242 r.246                    2000      -996.747               
   243 r.247                    1001             2               
   244 r.248                   -1001         -1001               
   245 r.249                 1997.99        2.1561               
   246 r.250                    1001             2               
   247 r.251                   -1001         -1001               
   248 r.252                 1997.99       9.39812               
   249 r.253                    1000             2               
   250 r.254                   -1000         -1001               
   251 r.255                 993.435      0.673067               
   252 r.256                       2             2               
   253 r.257                      -2         -1001               
   254 r.258                 995.196       2.39876               
   255 r.259                    1001             2               
   256 r.260                   -1001         -1001               
   257 r.261                    2000        2.0064               
   258 r.262                    1001             2               
   259 r.263                   -1001         -1001               
   260 r.264                    2000       3.73492               

   No. Column name       Activity     Lower bound   Upper bound
------ ------------    ------------- ------------- -------------
     1 tt                    7.49891             0               
     2 s_1_1        *              1             0             1 
     3 t_1_1                  4.1625             0               
     4 s_2_1        *              0             0             1 
     5 t_2_1                  3.2533             0               
     6 s_1_2        *              1             0             1 
     7 t_1_2                  2.0064             0               
     8 s_2_2        *              0             0             1 
     9 t_2_2                  2.0064             0               
    10 s_1_3        *              0             0             1 
    11 t_1_3                 1006.81             0               
    12 s_2_3        *              1             0             1 
    13 t_2_3                  3.2533             0               
    14 s_1_4        *              0             0             1 
    15 t_1_4                 1006.57             0               
    16 s_2_4        *              1             0             1 
    17 t_2_4                 4.80389             0               
    18 s_1_5        *              1             0             1 
    19 t_1_5                 6.42061             0               
    20 s_2_5        *              0             0             1 
    21 t_2_5                  3.2533             0               
    22 s_1_6        *              1             0             1 
    23 t_1_6                 7.23811             0               
    24 s_2_6        *              0             0             1 
    25 t_2_6                 7.23811             0               
    26 s_1_7        *              1             0             1 
    27 t_1_7                       0             0               
    28 s_2_7        *              0             0             1 
    29 t_2_7                       0             0               
    30 s_1_8        *              0             0             1 
    31 t_1_8                       0             0               
    32 s_2_8        *              1             0             1 
    33 t_2_8                       0             0               
    34 r_1_1_2      *              0             0             1 
    35 u_1_1_2      *              1             0             1 
    36 r_2_1_2      *              1             0             1 
    37 u_2_1_2      *              0             0             1 
    38 r_1_1_3      *              1             0             1 
    39 u_1_1_3      *              0             0             1 
    40 r_2_1_3      *              1             0             1 
    41 u_2_1_3      *              0             0             1 
    42 r_1_1_4      *              1             0             1 
    43 u_1_1_4      *              0             0             1 
    44 r_2_1_4      *              1             0             1 
    45 u_2_1_4      *              0             0             1 
    46 r_1_1_5      *              0             0             1 
    47 u_1_1_5      *              0             0             1 
    48 r_2_1_5      *              1             0             1 
    49 u_2_1_5      *              0             0             1 
    50 r_1_2_3      *              1             0             1 
    51 u_1_2_3      *              0             0             1 
    52 r_2_2_3      *              1             0             1 
    53 u_2_2_3      *              0             0             1 
    54 r_1_2_4      *              1             0             1 
    55 u_1_2_4      *              0             0             1 
    56 r_2_2_4      *              1             0             1 
    57 u_2_2_4      *              0             0             1 
    58 r_1_2_5      *              0             0             1 
    59 u_1_2_5      *              0             0             1 
    60 r_2_2_5      *              1             0             1 
    61 u_2_2_5      *              0             0             1 
    62 r_1_2_8      *              1             0             1 
    63 u_1_2_8      *              0             0             1 
    64 r_2_2_8      *              1             0             1 
    65 u_2_2_8      *              0             0             1 
    66 r_1_3_4      *              1             0             1 
    67 u_1_3_4      *              0             0             1 
    68 r_2_3_4      *              0             0             1 
    69 u_2_3_4      *              0             0             1 
    70 r_1_3_5      *              1             0             1 
    71 u_1_3_5      *              0             0             1 
    72 r_2_3_5      *              1             0             1 
    73 u_2_3_5      *              0             0             1 
    74 r_1_4_5      *              1             0             1 
    75 u_1_4_5      *              0             0             1 
    76 r_2_4_5      *              1             0             1 
    77 u_2_4_5      *              0             0             1 
    78 r_1_4_8      *              1             0             1 
    79 u_1_4_8      *              0             0             1 
    80 r_2_4_8      *              0             0             1 
    81 u_2_4_8      *              1             0             1 
    82 r_1_5_7      *              0             0             1 
    83 u_1_5_7      *              1             0             1 
    84 r_2_5_7      *              1             0             1 
    85 u_2_5_7      *              0             0             1 
    86 r_1_7_8      *              1             0             1 
    87 u_1_7_8      *              0             0             1 
    88 r_2_7_8      *              1             0             1 
    89 u_2_7_8      *              0             0             1 

Integer feasibility conditions:

KKT.PE: max.abs.err = 4.55e-13 on row 123
        max.rel.err = 7.56e-17 on row 123
        High quality

KKT.PB: max.abs.err = 4.44e-16 on row 168
        max.rel.err = 1.74e-16 on row 168
        High quality

End of output
